# Solution for model icep
# Objective value = 147
flowLmbda[0,0] 5
flowLmbda[1,0] 5
flowBeta[0,0,0,0] 0
flowBeta[0,0,0,1] 0
flowBeta[0,0,1,0] 0
flowBeta[0,0,1,1] 16
flowBeta[0,1,0,0] 0
flowBeta[0,1,0,1] 16
flowBeta[0,1,1,0] 0
flowBeta[0,1,1,1] 0
flowBeta[0,2,0,0] 0
flowBeta[0,2,0,1] 16
flowBeta[0,2,1,0] 0
flowBeta[0,2,1,1] 0
flowBeta[0,3,0,0] 0
flowBeta[0,3,0,1] 0
flowBeta[0,3,1,0] 0
flowBeta[0,3,1,1] 0
flowBeta[0,4,0,0] 0
flowBeta[0,4,0,1] 0
flowBeta[0,4,1,0] 0
flowBeta[0,4,1,1] 0
flowBeta[0,5,0,0] 0
flowBeta[0,5,0,1] 0
flowBeta[0,5,1,0] 0
flowBeta[0,5,1,1] 0
flowBeta[0,6,0,0] 0
flowBeta[0,6,0,1] 0
flowBeta[0,6,1,0] 0
flowBeta[0,6,1,1] 0
flowBeta[1,0,0,0] 0
flowBeta[1,0,0,1] 0
flowBeta[1,0,1,0] 0
flowBeta[1,0,1,1] 23
flowBeta[1,1,0,0] 0
flowBeta[1,1,0,1] 23
flowBeta[1,1,1,0] 0
flowBeta[1,1,1,1] 0
flowBeta[1,2,0,0] 0
flowBeta[1,2,0,1] 0
flowBeta[1,2,1,0] 0
flowBeta[1,2,1,1] 16
flowBeta[1,3,0,0] 0
flowBeta[1,3,0,1] 0
flowBeta[1,3,1,0] 0
flowBeta[1,3,1,1] 0
flowBeta[1,4,0,0] 0
flowBeta[1,4,0,1] 0
flowBeta[1,4,1,0] 0
flowBeta[1,4,1,1] 0
flowBeta[1,5,0,0] 0
flowBeta[1,5,0,1] 0
flowBeta[1,5,1,0] 0
flowBeta[1,5,1,1] 0
flowBeta[1,6,0,0] 0
flowBeta[1,6,0,1] 0
flowBeta[1,6,1,0] 0
flowBeta[1,6,1,1] 0
flowGamma[0,0,0,0] 0
flowGamma[0,0,0,1] 0
flowGamma[0,0,1,0] 16
flowGamma[0,0,1,1] 0
flowGamma[0,1,0,0] 0
flowGamma[0,1,0,1] 0
flowGamma[0,1,1,0] 16
flowGamma[0,1,1,1] 0
flowGamma[0,2,0,0] 0
flowGamma[0,2,0,1] 0
flowGamma[0,2,1,0] 16
flowGamma[0,2,1,1] 0
flowGamma[0,3,0,0] 0
flowGamma[0,3,0,1] 0
flowGamma[0,3,1,0] 0
flowGamma[0,3,1,1] 0
flowGamma[0,4,0,0] 0
flowGamma[0,4,0,1] 0
flowGamma[0,4,1,0] 0
flowGamma[0,4,1,1] 0
flowGamma[0,5,0,0] 0
flowGamma[0,5,0,1] 0
flowGamma[0,5,1,0] 0
flowGamma[0,5,1,1] 0
flowGamma[0,6,0,0] 0
flowGamma[0,6,0,1] 0
flowGamma[0,6,1,0] 0
flowGamma[0,6,1,1] 0
flowGamma[1,0,0,0] 0
flowGamma[1,0,0,1] 0
flowGamma[1,0,1,0] 23
flowGamma[1,0,1,1] 0
flowGamma[1,1,0,0] 0
flowGamma[1,1,0,1] 0
flowGamma[1,1,1,0] 23
flowGamma[1,1,1,1] 0
flowGamma[1,2,0,0] 0
flowGamma[1,2,0,1] 0
flowGamma[1,2,1,0] 16
flowGamma[1,2,1,1] 0
flowGamma[1,3,0,0] 0
flowGamma[1,3,0,1] 0
flowGamma[1,3,1,0] 0
flowGamma[1,3,1,1] 0
flowGamma[1,4,0,0] 0
flowGamma[1,4,0,1] 0
flowGamma[1,4,1,0] 0
flowGamma[1,4,1,1] 0
flowGamma[1,5,0,0] 0
flowGamma[1,5,0,1] 0
flowGamma[1,5,1,0] 0
flowGamma[1,5,1,1] 0
flowGamma[1,6,0,0] 0
flowGamma[1,6,0,1] 0
flowGamma[1,6,1,0] 0
flowGamma[1,6,1,1] 0
flowEpsilon[0,0,0,0] 16
flowEpsilon[0,0,1,0] 0
flowEpsilon[0,1,0,0] 16
flowEpsilon[0,1,1,0] 0
flowEpsilon[0,2,0,0] 16
flowEpsilon[0,2,1,0] 0
flowEpsilon[0,3,0,0] 0
flowEpsilon[0,3,1,0] 0
flowEpsilon[0,4,0,0] 0
flowEpsilon[0,4,1,0] 0
flowEpsilon[0,5,0,0] 0
flowEpsilon[0,5,1,0] 0
flowEpsilon[0,6,0,0] 0
flowEpsilon[0,6,1,0] 0
flowEpsilon[1,0,0,0] 23
flowEpsilon[1,0,1,0] 0
flowEpsilon[1,1,0,0] 23
flowEpsilon[1,1,1,0] 0
flowEpsilon[1,2,0,0] 16
flowEpsilon[1,2,1,0] 0
flowEpsilon[1,3,0,0] 0
flowEpsilon[1,3,1,0] 0
flowEpsilon[1,4,0,0] 0
flowEpsilon[1,4,1,0] 0
flowEpsilon[1,5,0,0] 0
flowEpsilon[1,5,1,0] 0
flowEpsilon[1,6,0,0] 0
flowEpsilon[1,6,1,0] 0
zetaSelect[0,0,0] 0
zetaSelect[0,0,1] 1
zetaSelect[0,1,0] 0
zetaSelect[0,1,1] 0
zetaSelect[1,0,0] 0
zetaSelect[1,0,1] 1
zetaSelect[1,1,0] 0
zetaSelect[1,1,1] 0
gammaSelect[0,0,0,0] 0
gammaSelect[0,0,0,1] 0
gammaSelect[0,0,1,0] 1
gammaSelect[0,0,1,1] 0
gammaSelect[0,1,0,0] 0
gammaSelect[0,1,0,1] 0
gammaSelect[0,1,1,0] 1
gammaSelect[0,1,1,1] 0
gammaSelect[0,2,0,0] 0
gammaSelect[0,2,0,1] 0
gammaSelect[0,2,1,0] 1
gammaSelect[0,2,1,1] 0
gammaSelect[0,3,0,0] 0
gammaSelect[0,3,0,1] 0
gammaSelect[0,3,1,0] 0
gammaSelect[0,3,1,1] 0
gammaSelect[0,4,0,0] 0
gammaSelect[0,4,0,1] 0
gammaSelect[0,4,1,0] 0
gammaSelect[0,4,1,1] 0
gammaSelect[0,5,0,0] 0
gammaSelect[0,5,0,1] 0
gammaSelect[0,5,1,0] 0
gammaSelect[0,5,1,1] 0
gammaSelect[0,6,0,0] 0
gammaSelect[0,6,0,1] 0
gammaSelect[0,6,1,0] 0
gammaSelect[0,6,1,1] 0
gammaSelect[1,0,0,0] 0
gammaSelect[1,0,0,1] 0
gammaSelect[1,0,1,0] 1
gammaSelect[1,0,1,1] 0
gammaSelect[1,1,0,0] 0
gammaSelect[1,1,0,1] 0
gammaSelect[1,1,1,0] 1
gammaSelect[1,1,1,1] 0
gammaSelect[1,2,0,0] 0
gammaSelect[1,2,0,1] 0
gammaSelect[1,2,1,0] 1
gammaSelect[1,2,1,1] 0
gammaSelect[1,3,0,0] 0
gammaSelect[1,3,0,1] 0
gammaSelect[1,3,1,0] 0
gammaSelect[1,3,1,1] 0
gammaSelect[1,4,0,0] 0
gammaSelect[1,4,0,1] 0
gammaSelect[1,4,1,0] 0
gammaSelect[1,4,1,1] 0
gammaSelect[1,5,0,0] 0
gammaSelect[1,5,0,1] 0
gammaSelect[1,5,1,0] 0
gammaSelect[1,5,1,1] 0
gammaSelect[1,6,0,0] 0
gammaSelect[1,6,0,1] 0
gammaSelect[1,6,1,0] 0
gammaSelect[1,6,1,1] 0
deltaSelect[0,0,0,0] 0
deltaSelect[0,0,0,1] 1
deltaSelect[0,0,1,0] 0
deltaSelect[0,0,1,1] 0
deltaSelect[0,1,0,0] 0
deltaSelect[0,1,0,1] 1
deltaSelect[0,1,1,0] 0
deltaSelect[0,1,1,1] 0
deltaSelect[0,2,0,0] 0
deltaSelect[0,2,0,1] 0
deltaSelect[0,2,1,0] 0
deltaSelect[0,2,1,1] 0
deltaSelect[0,3,0,0] 0
deltaSelect[0,3,0,1] 0
deltaSelect[0,3,1,0] 0
deltaSelect[0,3,1,1] 0
deltaSelect[0,4,0,0] 0
deltaSelect[0,4,0,1] 0
deltaSelect[0,4,1,0] 0
deltaSelect[0,4,1,1] 0
deltaSelect[0,5,0,0] 0
deltaSelect[0,5,0,1] 0
deltaSelect[0,5,1,0] 0
deltaSelect[0,5,1,1] 0
deltaSelect[0,6,0,0] 0
deltaSelect[0,6,0,1] 0
deltaSelect[0,6,1,0] 0
deltaSelect[0,6,1,1] 0
deltaSelect[1,0,0,0] 0
deltaSelect[1,0,0,1] 1
deltaSelect[1,0,1,0] 0
deltaSelect[1,0,1,1] 0
deltaSelect[1,1,0,0] 0
deltaSelect[1,1,0,1] 1
deltaSelect[1,1,1,0] 0
deltaSelect[1,1,1,1] 0
deltaSelect[1,2,0,0] 0
deltaSelect[1,2,0,1] 0
deltaSelect[1,2,1,0] 0
deltaSelect[1,2,1,1] 0
deltaSelect[1,3,0,0] 0
deltaSelect[1,3,0,1] 0
deltaSelect[1,3,1,0] 0
deltaSelect[1,3,1,1] 0
deltaSelect[1,4,0,0] 0
deltaSelect[1,4,0,1] 0
deltaSelect[1,4,1,0] 0
deltaSelect[1,4,1,1] 0
deltaSelect[1,5,0,0] 0
deltaSelect[1,5,0,1] 0
deltaSelect[1,5,1,0] 0
deltaSelect[1,5,1,1] 0
deltaSelect[1,6,0,0] 0
deltaSelect[1,6,0,1] 0
deltaSelect[1,6,1,0] 0
deltaSelect[1,6,1,1] 0
timeForResourceI[0] 147
timeForResourceI[1] 127
totalTime 147
gammaLegit[0,0,0,0] 1
gammaLegit[0,0,0,1] 1
gammaLegit[0,0,1,0] 1
gammaLegit[0,0,1,1] 1
gammaLegit[0,1,0,0] 1
gammaLegit[0,1,0,1] 1
gammaLegit[0,1,1,0] 1
gammaLegit[0,1,1,1] 1
gammaLegit[0,2,0,0] 1
gammaLegit[0,2,0,1] 1
gammaLegit[0,2,1,0] 1
gammaLegit[0,2,1,1] 1
gammaLegit[0,3,0,0] 1
gammaLegit[0,3,0,1] 1
gammaLegit[0,3,1,0] 1
gammaLegit[0,3,1,1] 1
gammaLegit[0,4,0,0] 1
gammaLegit[0,4,0,1] 1
gammaLegit[0,4,1,0] 1
gammaLegit[0,4,1,1] 1
gammaLegit[0,5,0,0] 1
gammaLegit[0,5,0,1] 1
gammaLegit[0,5,1,0] 1
gammaLegit[0,5,1,1] 1
gammaLegit[0,6,0,0] 1
gammaLegit[0,6,0,1] 1
gammaLegit[0,6,1,0] 1
gammaLegit[0,6,1,1] 1
gammaLegit[1,0,0,0] 1
gammaLegit[1,0,0,1] 1
gammaLegit[1,0,1,0] 1
gammaLegit[1,0,1,1] 1
gammaLegit[1,1,0,0] 1
gammaLegit[1,1,0,1] 1
gammaLegit[1,1,1,0] 1
gammaLegit[1,1,1,1] 1
gammaLegit[1,2,0,0] 1
gammaLegit[1,2,0,1] 1
gammaLegit[1,2,1,0] 1
gammaLegit[1,2,1,1] 1
gammaLegit[1,3,0,0] 1
gammaLegit[1,3,0,1] 1
gammaLegit[1,3,1,0] 1
gammaLegit[1,3,1,1] 1
gammaLegit[1,4,0,0] 1
gammaLegit[1,4,0,1] 1
gammaLegit[1,4,1,0] 1
gammaLegit[1,4,1,1] 1
gammaLegit[1,5,0,0] 1
gammaLegit[1,5,0,1] 1
gammaLegit[1,5,1,0] 1
gammaLegit[1,5,1,1] 1
gammaLegit[1,6,0,0] 1
gammaLegit[1,6,0,1] 1
gammaLegit[1,6,1,0] 1
gammaLegit[1,6,1,1] 1
